StringID   Type       x          y          demand     ReadyTime  DueDate    ServiceTime 
D0         d          40.0       50.0       0.0        0.0        960.0      0.0        
S0         f          40.0       50.0       0.0        0.0        960.0      0.0        
S3         f          55.0       79.0       0.0        0.0        960.0      0.0        
S7         f          23.0       80.0       0.0        0.0        960.0      0.0        
S9         f          18.0       58.0       0.0        0.0        960.0      0.0        
S13        f          26.0       37.0       0.0        0.0        960.0      0.0        
S18        f          73.0       23.0       0.0        0.0        960.0      0.0        
C1         c          25.0       85.0       20.0       300.0      420.0      10.0       
C3         c          22.0       85.0       10.0       338.0      458.0      10.0       
C6         c          18.0       75.0       20.0       258.0      378.0      10.0       
C8         c          15.0       80.0       10.0       440.0      560.0      10.0       
C9         c          10.0       35.0       20.0       654.0      774.0      10.0       
C11        c          8.0        40.0       40.0       401.0      521.0      10.0       
C14        c          5.0        45.0       10.0       198.0      318.0      10.0       
C17        c          0.0        45.0       20.0       176.0      296.0      10.0       
C19        c          42.0       10.0       40.0       41.0       161.0      10.0       
C21        c          40.0       5.0        10.0       522.0      642.0      10.0       
C23        c          38.0       5.0        30.0       269.0      389.0      10.0       
C28        c          92.0       30.0       10.0       153.0      273.0      10.0       
C33        c          85.0       25.0       10.0       766.0      886.0      10.0       
C36        c          65.0       85.0       40.0       517.0      637.0      10.0       
C41        c          58.0       75.0       20.0       257.0      377.0      10.0       
C54        c          55.0       60.0       16.0       557.0      677.0      10.0       
C63        c          65.0       20.0       6.0        316.0      436.0      10.0       
C75        c          5.0        5.0        16.0       384.0      504.0      10.0       
C87        c          12.0       24.0       13.0       381.0      501.0      10.0       

Q xxxxxxxxxxxxxxxxxxxx /211.04/
C xxxxxxxxxxxxxxxxxxxxx /1000.0/
r xxxxxxxxxxxxxx /1.0/
g xxxxxxxxxxxxxxxxxxxxxxx /0.14/
v xxxxxxxxxxxxxxx /1.0/
